numero_plantas = 5;
numero_clientes = 2;
numero_dias = 4;
costos = [20.0, 25.0, 30.0, 35.0, 40.0];
capacidades = [200.0, 300.0, 400.0, 500.0, 600.0];
G = 50.0;
demanda = [| 100.0, 150.0, 200.0, 250.0
           | 200.0, 250.0, 300.0, 350.0|];
pagos = [100.0, 90.0];
porcentaje_regimen_alto = [100.0, 100.0, 80.0, 80.0, 80.0];
max_dias_consecutivos_regimen = [1, 1, 2, 3, 1];